p edge 82 399
1 44
1 69
1 2
1 57
1 17
2 3
2 47
2 72
2 25
2 20
3 57
3 53
3 4
3 60
3 13
4 37
4 14
4 46
4 5
5 74
5 18
5 6
5 68
5 63
6 71
6 7
6 43
6 3
6 53
7 73
7 60
7 8
7 33
7 24
8 38
8 9
8 2
8 37
8 19
9 36
9 28
9 10
9 51
9 15
10 60
10 34
10 27
10 36
10 11
11 31
11 23
11 28
11 12
11 19
12 4
12 64
12 31
12 13
12 33
13 14
13 3
13 22
13 21
13 9
14 8
14 72
14 41
14 4
14 15
15 16
15 3
15 57
15 6
15 45
16 30
16 41
16 55
16 52
16 17
17 18
17 71
17 55
17 73
18 11
18 17
18 66
18 57
18 19
19 20
19 14
19 24
19 10
19 38
20 8
20 65
20 27
20 57
20 21
21 25
21 22
21 8
21 40
21 12
22 78
22 54
22 23
22 31
22 3
23 24
23 54
23 64
23 80
23 28
24 63
24 70
24 47
24 29
24 25
25 64
25 22
25 26
25 50
25 29
26 27
26 51
26 11
26 50
26 41
27 43
27 79
27 77
27 28
27 36
28 73
28 29
28 3
28 67
28 24
29 36
29 5
29 22
29 30
29 72
30 72
30 3
30 31
30 23
30 13
31 47
31 32
31 61
31 22
32 33
32 45
32 8
32 35
32 62
33 34
33 10
33 5
34 67
34 35
34 77
34 42
34 54
35 80
35 36
35 28
36 47
36 75
36 79
36 37
36 67
37 14
37 45
37 38
37 77
37 33
38 39
38 70
38 46
38 60
38 3
39 57
39 40
39 49
39 14
39 53
40 8
40 64
40 32
40 78
40 41
41 74
41 65
41 42
41 45
41 47
42 29
42 20
42 57
42 43
42 51
43 39
43 44
43 17
43 3
44 28
44 45
44 26
44 72
44 6
45 43
45 58
45 52
45 46
45 75
46 10
46 47
46 66
46 42
46 30
47 64
47 48
47 56
47 65
47 49
48 49
48 34
48 15
48 50
48 78
49 60
49 25
49 75
49 71
49 50
50 3
50 10
50 51
50 5
51 8
51 52
51 65
51 46
51 64
52 51
52 17
52 62
52 47
52 53
53 79
53 54
53 14
53 40
53 45
54 55
54 22
54 4
54 47
54 81
55 59
55 75
55 7
55 71
55 56
56 48
56 20
56 45
56 57
56 24
57 58
57 30
57 34
57 55
57 36
58 74
58 59
58 7
58 2
58 38
59 69
59 46
59 13
59 28
59 60
60 61
60 63
60 71
60 82
60 35
61 15
61 77
61 50
61 62
61 66
62 7
62 20
62 63
62 69
62 23
63 33
63 64
63 15
63 36
63 81
64 47
64 67
64 16
64 65
64 28
65 6
65 14
65 66
65 39
65 74
66 49
66 57
66 79
66 46
66 67
67 2
67 62
67 25
67 5
67 68
68 7
68 58
68 60
68 11
68 69
69 8
69 27
69 1
69 76
69 70
70 14
70 45
70 43
70 71
70 22
71 72
71 53
71 76
71 29
72 73
72 30
72 79
72 50
72 54
73 72
73 26
73 39
73 65
73 74
74 41
74 75
74 2
74 37
74 59
75 69
75 4
75 76
75 35
76 77
76 49
76 33
76 16
76 48
77 78
77 39
77 12
77 36
77 23
78 31
78 79
78 17
78 73
78 47
79 31
79 57
79 32
79 68
79 80
80 40
80 56
80 29
80 70
80 81
81 57
81 82
81 79
81 63
81 64
82 1
82 44
82 37
82 2
82 11
